db/inputs/630912610275026973250186001169921375.smt2
(set-logic QF_FP)
(declare-const x0 (_ FloatingPoint 11 53))
(declare-const x1 (_ FloatingPoint 11 53))
(declare-const x2 (_ FloatingPoint 11 53))
(declare-const x3 (_ FloatingPoint 11 53))
(declare-const x4 (_ FloatingPoint 11 53))
(declare-const x5 (_ FloatingPoint 11 53))
(assert (fp.gt (fp.neg (fp.neg (fp.mul RNE x4 x4))) (fp.mul RNE (fp.sub RNE (fp.sub RNE x3 x5) (fp.add RNE x1 x5)) (fp.div RNE (fp.mul RNE x3 x0) (fp.add RNE x0 x0)))))
(assert (fp.leq (fp.neg (fp.neg (fp.sub RNE x1 x5))) (fp.div RNE (fp.mul RNE (fp.sub RNE x3 x2) (fp.div RNE x0 x5)) (fp.add RNE (fp.mul RNE x3 x5) (fp.add RNE x0 x2)))))
(check-sat)
