db/data/630912610275026973250186001169921375.z3.out
-------------------
2502.347616688
